/* Objective function */
max: +t;

/* Constraints */
-3.5 pi2 -6.92598452548e-012 pi3 -1.51336131127e-011 pi4 -3.56026597092e-010 pi5 -t >= 0;
-0.307211637497 pi2 -t >= 0;
-2.79496979714 pi1 -0.237624183297 pi2 -1.97637972654e-009 pi5 -t >= 0;
-0.676144301891 pi2 -t >= 0;
-0.706686198711 pi2 -0.0434572100639 pi3 -1.55812978745 pi4 -9.9348154068 pi5 -t >= 0;
+pi1 +pi2 +pi3 +pi4 +pi5 = 1;
